c Generated map
c Size: 30 * 30, weights in range: 1 to 10, walls: True, with ratio 0.05
c dim 1 of 3
c
p sp 900 1570
c graph contains 900 nodes and 1570 arcs
c
a 1 31 5
a 31 1 5
a 1 2 8
a 2 1 8
a 2 32 5
a 32 2 5
a 2 3 5
a 3 2 5
a 3 33 8
a 33 3 8
a 3 4 2
a 4 3 2
a 4 34 2
a 34 4 2
a 4 5 2
a 5 4 2
a 5 35 7
a 35 5 7
a 5 6 5
a 6 5 5
a 6 36 1
a 36 6 1
a 6 7 6
a 7 6 6
a 7 37 7
a 37 7 7
a 7 8 8
a 8 7 8
a 8 38 3
a 38 8 3
a 8 9 9
a 9 8 9
a 9 10 5
a 10 9 5
a 10 40 2
a 40 10 2
a 10 11 5
a 11 10 5
a 11 41 2
a 41 11 2
a 11 12 2
a 12 11 2
a 12 42 7
a 42 12 7
a 12 13 8
a 13 12 8
a 13 43 1
a 43 13 1
a 13 14 8
a 14 13 8
a 14 44 3
a 44 14 3
a 14 15 3
a 15 14 3
a 15 45 4
a 45 15 4
a 15 16 9
a 16 15 9
a 16 17 5
a 17 16 5
a 17 47 4
a 47 17 4
a 17 18 5
a 18 17 5
a 18 48 5
a 48 18 5
a 18 19 1
a 19 18 1
a 19 49 7
a 49 19 7
a 19 20 2
a 20 19 2
a 20 50 10
a 50 20 10
a 20 21 5
a 21 20 5
a 21 51 6
a 51 21 6
a 21 22 5
a 22 21 5
a 22 52 7
a 52 22 7
a 22 23 2
a 23 22 2
a 23 53 1
a 53 23 1
a 23 24 1
a 24 23 1
a 24 54 10
a 54 24 10
a 24 25 5
a 25 24 5
a 25 55 6
a 55 25 6
a 25 26 7
a 26 25 7
a 26 27 5
a 27 26 5
a 27 57 5
a 57 27 5
a 27 28 4
a 28 27 4
a 28 58 5
a 58 28 5
a 28 29 1
a 29 28 1
a 29 59 7
a 59 29 7
a 29 30 8
a 30 29 8
a 30 60 4
a 60 30 4
a 31 61 10
a 61 31 10
a 31 32 1
a 32 31 1
a 32 62 2
a 62 32 2
a 32 33 8
a 33 32 8
a 33 63 4
a 63 33 4
a 33 34 6
a 34 33 6
a 34 64 8
a 64 34 8
a 34 35 2
a 35 34 2
a 35 65 5
a 65 35 5
a 35 36 3
a 36 35 3
a 36 66 2
a 66 36 2
a 36 37 7
a 37 36 7
a 37 67 4
a 67 37 4
a 37 38 4
a 38 37 4
a 38 68 6
a 68 38 6
a 40 70 3
a 70 40 3
a 40 41 8
a 41 40 8
a 41 71 2
a 71 41 2
a 41 42 2
a 42 41 2
a 42 72 7
a 72 42 7
a 42 43 7
a 43 42 7
a 43 73 5
a 73 43 5
a 43 44 7
a 44 43 7
a 44 74 9
a 74 44 9
a 44 45 4
a 45 44 4
a 45 75 7
a 75 45 7
a 47 77 4
a 77 47 4
a 47 48 3
a 48 47 3
a 48 78 8
a 78 48 8
a 48 49 7
a 49 48 7
a 49 50 3
a 50 49 3
a 50 80 8
a 80 50 8
a 50 51 6
a 51 50 6
a 51 81 4
a 81 51 4
a 51 52 3
a 52 51 3
a 52 82 1
a 82 52 1
a 52 53 10
a 53 52 10
a 53 54 6
a 54 53 6
a 54 84 4
a 84 54 4
a 54 55 5
a 55 54 5
a 55 85 10
a 85 55 10
a 57 87 1
a 87 57 1
a 57 58 6
a 58 57 6
a 58 88 2
a 88 58 2
a 58 59 5
a 59 58 5
a 59 89 8
a 89 59 8
a 59 60 2
a 60 59 2
a 60 90 4
a 90 60 4
a 61 91 7
a 91 61 7
a 61 62 3
a 62 61 3
a 62 92 1
a 92 62 1
a 62 63 6
a 63 62 6
a 63 93 4
a 93 63 4
a 63 64 4
a 64 63 4
a 64 94 10
a 94 64 10
a 64 65 2
a 65 64 2
a 65 66 3
a 66 65 3
a 66 96 2
a 96 66 2
a 66 67 7
a 67 66 7
a 67 97 3
a 97 67 3
a 67 68 9
a 68 67 9
a 68 98 9
a 98 68 9
a 68 69 2
a 69 68 2
a 69 99 9
a 99 69 9
a 69 70 2
a 70 69 2
a 70 100 3
a 100 70 3
a 70 71 8
a 71 70 8
a 71 101 6
a 101 71 6
a 71 72 1
a 72 71 1
a 72 102 2
a 102 72 2
a 72 73 3
a 73 72 3
a 73 103 1
a 103 73 1
a 73 74 7
a 74 73 7
a 74 104 3
a 104 74 3
a 74 75 1
a 75 74 1
a 75 76 4
a 76 75 4
a 76 106 5
a 106 76 5
a 76 77 1
a 77 76 1
a 77 107 9
a 107 77 9
a 77 78 1
a 78 77 1
a 78 108 3
a 108 78 3
a 80 110 9
a 110 80 9
a 80 81 8
a 81 80 8
a 81 111 8
a 111 81 8
a 81 82 6
a 82 81 6
a 82 112 4
a 112 82 4
a 84 85 9
a 85 84 9
a 85 115 10
a 115 85 10
a 85 86 3
a 86 85 3
a 86 116 8
a 116 86 8
a 86 87 7
a 87 86 7
a 87 117 5
a 117 87 5
a 87 88 5
a 88 87 5
a 88 118 5
a 118 88 5
a 88 89 7
a 89 88 7
a 89 119 2
a 119 89 2
a 89 90 7
a 90 89 7
a 90 120 4
a 120 90 4
a 91 121 5
a 121 91 5
a 91 92 4
a 92 91 4
a 92 122 9
a 122 92 9
a 92 93 10
a 93 92 10
a 93 123 1
a 123 93 1
a 93 94 1
a 94 93 1
a 94 124 2
a 124 94 2
a 96 126 5
a 126 96 5
a 96 97 7
a 97 96 7
a 97 98 4
a 98 97 4
a 98 128 4
a 128 98 4
a 98 99 3
a 99 98 3
a 99 129 4
a 129 99 4
a 99 100 1
a 100 99 1
a 100 130 1
a 130 100 1
a 100 101 8
a 101 100 8
a 101 131 1
a 131 101 1
a 101 102 2
a 102 101 2
a 102 132 5
a 132 102 5
a 102 103 6
a 103 102 6
a 103 104 8
a 104 103 8
a 104 134 3
a 134 104 3
a 106 136 2
a 136 106 2
a 106 107 3
a 107 106 3
a 107 137 7
a 137 107 7
a 107 108 3
a 108 107 3
a 108 138 9
a 138 108 9
a 108 109 10
a 109 108 10
a 109 139 4
a 139 109 4
a 109 110 2
a 110 109 2
a 110 140 6
a 140 110 6
a 110 111 9
a 111 110 9
a 111 141 8
a 141 111 8
a 111 112 3
a 112 111 3
a 112 142 7
a 142 112 7
a 112 113 2
a 113 112 2
a 113 143 3
a 143 113 3
a 115 145 10
a 145 115 10
a 115 116 10
a 116 115 10
a 116 146 3
a 146 116 3
a 116 117 3
a 117 116 3
a 117 147 3
a 147 117 3
a 117 118 7
a 118 117 7
a 118 148 3
a 148 118 3
a 118 119 3
a 119 118 3
a 119 149 2
a 149 119 2
a 119 120 2
a 120 119 2
a 120 150 9
a 150 120 9
a 121 151 5
a 151 121 5
a 121 122 6
a 122 121 6
a 122 152 4
a 152 122 4
a 122 123 5
a 123 122 5
a 123 153 3
a 153 123 3
a 123 124 3
a 124 123 3
a 124 125 6
a 125 124 6
a 125 155 9
a 155 125 9
a 125 126 2
a 126 125 2
a 126 156 1
a 156 126 1
a 128 158 1
a 158 128 1
a 128 129 4
a 129 128 4
a 129 159 7
a 159 129 7
a 129 130 10
a 130 129 10
a 130 160 7
a 160 130 7
a 130 131 8
a 131 130 8
a 131 161 8
a 161 131 8
a 131 132 1
a 132 131 1
a 132 162 2
a 162 132 2
a 134 164 7
a 164 134 7
a 134 135 2
a 135 134 2
a 135 165 1
a 165 135 1
a 135 136 5
a 136 135 5
a 136 166 7
a 166 136 7
a 136 137 9
a 137 136 9
a 137 167 1
a 167 137 1
a 137 138 4
a 138 137 4
a 138 168 1
a 168 138 1
a 138 139 3
a 139 138 3
a 139 169 10
a 169 139 10
a 139 140 6
a 140 139 6
a 140 170 1
a 170 140 1
a 140 141 9
a 141 140 9
a 141 142 6
a 142 141 6
a 142 172 10
a 172 142 10
a 142 143 8
a 143 142 8
a 143 173 7
a 173 143 7
a 143 144 7
a 144 143 7
a 144 174 8
a 174 144 8
a 144 145 9
a 145 144 9
a 145 175 9
a 175 145 9
a 145 146 6
a 146 145 6
a 146 176 7
a 176 146 7
a 146 147 8
a 147 146 8
a 147 177 1
a 177 147 1
a 147 148 3
a 148 147 3
a 148 178 9
a 178 148 9
a 148 149 9
a 149 148 9
a 149 179 6
a 179 149 6
a 149 150 10
a 150 149 10
a 150 180 6
a 180 150 6
a 151 181 8
a 181 151 8
a 151 152 10
a 152 151 10
a 152 182 9
a 182 152 9
a 152 153 1
a 153 152 1
a 153 183 1
a 183 153 1
a 155 185 2
a 185 155 2
a 155 156 8
a 156 155 8
a 156 186 10
a 186 156 10
a 156 157 5
a 157 156 5
a 157 187 2
a 187 157 2
a 157 158 3
a 158 157 3
a 158 188 4
a 188 158 4
a 158 159 1
a 159 158 1
a 159 189 10
a 189 159 10
a 159 160 4
a 160 159 4
a 160 190 4
a 190 160 4
a 160 161 5
a 161 160 5
a 161 191 2
a 191 161 2
a 161 162 7
a 162 161 7
a 162 192 6
a 192 162 6
a 162 163 3
a 163 162 3
a 163 193 4
a 193 163 4
a 163 164 2
a 164 163 2
a 164 194 2
a 194 164 2
a 164 165 8
a 165 164 8
a 165 195 2
a 195 165 2
a 165 166 3
a 166 165 3
a 166 196 7
a 196 166 7
a 166 167 5
a 167 166 5
a 167 197 9
a 197 167 9
a 167 168 7
a 168 167 7
a 168 198 6
a 198 168 6
a 168 169 3
a 169 168 3
a 169 199 5
a 199 169 5
a 169 170 6
a 170 169 6
a 170 200 6
a 200 170 6
a 172 202 9
a 202 172 9
a 172 173 4
a 173 172 4
a 173 203 2
a 203 173 2
a 173 174 5
a 174 173 5
a 174 204 8
a 204 174 8
a 174 175 5
a 175 174 5
a 175 205 6
a 205 175 6
a 175 176 6
a 176 175 6
a 176 206 6
a 206 176 6
a 176 177 4
a 177 176 4
a 177 207 1
a 207 177 1
a 177 178 6
a 178 177 6
a 178 179 1
a 179 178 1
a 179 209 2
a 209 179 2
a 179 180 3
a 180 179 3
a 180 210 5
a 210 180 5
a 181 211 6
a 211 181 6
a 181 182 7
a 182 181 7
a 182 212 8
a 212 182 8
a 182 183 6
a 183 182 6
a 183 213 4
a 213 183 4
a 183 184 5
a 184 183 5
a 184 214 4
a 214 184 4
a 184 185 1
a 185 184 1
a 185 215 4
a 215 185 4
a 185 186 9
a 186 185 9
a 186 216 9
a 216 186 9
a 186 187 4
a 187 186 4
a 187 217 2
a 217 187 2
a 187 188 6
a 188 187 6
a 188 218 3
a 218 188 3
a 188 189 10
a 189 188 10
a 189 219 6
a 219 189 6
a 189 190 4
a 190 189 4
a 190 220 2
a 220 190 2
a 190 191 1
a 191 190 1
a 191 221 4
a 221 191 4
a 191 192 6
a 192 191 6
a 192 222 3
a 222 192 3
a 192 193 5
a 193 192 5
a 193 223 9
a 223 193 9
a 193 194 6
a 194 193 6
a 194 224 8
a 224 194 8
a 194 195 1
a 195 194 1
a 195 225 1
a 225 195 1
a 195 196 9
a 196 195 9
a 196 226 4
a 226 196 4
a 196 197 8
a 197 196 8
a 197 227 7
a 227 197 7
a 197 198 4
a 198 197 4
a 198 228 5
a 228 198 5
a 198 199 2
a 199 198 2
a 199 229 7
a 229 199 7
a 199 200 8
a 200 199 8
a 200 230 2
a 230 200 2
a 200 201 3
a 201 200 3
a 201 231 7
a 231 201 7
a 201 202 8
a 202 201 8
a 202 232 10
a 232 202 10
a 202 203 6
a 203 202 6
a 203 233 8
a 233 203 8
a 203 204 5
a 204 203 5
a 204 205 8
a 205 204 8
a 205 235 1
a 235 205 1
a 205 206 7
a 206 205 7
a 206 236 4
a 236 206 4
a 206 207 5
a 207 206 5
a 207 237 2
a 237 207 2
a 209 239 2
a 239 209 2
a 209 210 5
a 210 209 5
a 210 240 3
a 240 210 3
a 211 241 10
a 241 211 10
a 211 212 4
a 212 211 4
a 212 242 3
a 242 212 3
a 212 213 6
a 213 212 6
a 213 243 9
a 243 213 9
a 213 214 6
a 214 213 6
a 214 244 2
a 244 214 2
a 214 215 8
a 215 214 8
a 215 245 5
a 245 215 5
a 215 216 10
a 216 215 10
a 216 246 1
a 246 216 1
a 216 217 8
a 217 216 8
a 217 247 3
a 247 217 3
a 217 218 1
a 218 217 1
a 218 219 2
a 219 218 2
a 219 249 4
a 249 219 4
a 219 220 7
a 220 219 7
a 220 250 9
a 250 220 9
a 220 221 9
a 221 220 9
a 221 251 8
a 251 221 8
a 221 222 5
a 222 221 5
a 222 252 6
a 252 222 6
a 222 223 4
a 223 222 4
a 223 253 2
a 253 223 2
a 223 224 6
a 224 223 6
a 224 254 4
a 254 224 4
a 224 225 2
a 225 224 2
a 225 255 10
a 255 225 10
a 225 226 5
a 226 225 5
a 226 256 10
a 256 226 10
a 226 227 6
a 227 226 6
a 227 257 2
a 257 227 2
a 227 228 4
a 228 227 4
a 228 258 9
a 258 228 9
a 228 229 8
a 229 228 8
a 229 259 1
a 259 229 1
a 229 230 6
a 230 229 6
a 230 231 8
a 231 230 8
a 231 261 4
a 261 231 4
a 231 232 7
a 232 231 7
a 232 262 1
a 262 232 1
a 232 233 3
a 233 232 3
a 233 263 8
a 263 233 8
a 235 265 8
a 265 235 8
a 235 236 7
a 236 235 7
a 236 266 9
a 266 236 9
a 236 237 2
a 237 236 2
a 237 267 2
a 267 237 2
a 237 238 2
a 238 237 2
a 238 268 10
a 268 238 10
a 238 239 2
a 239 238 2
a 239 269 8
a 269 239 8
a 239 240 7
a 240 239 7
a 240 270 4
a 270 240 4
a 241 271 6
a 271 241 6
a 241 242 6
a 242 241 6
a 242 272 1
a 272 242 1
a 242 243 9
a 243 242 9
a 243 273 2
a 273 243 2
a 243 244 6
a 244 243 6
a 244 274 5
a 274 244 5
a 244 245 5
a 245 244 5
a 245 275 4
a 275 245 4
a 245 246 10
a 246 245 10
a 246 276 8
a 276 246 8
a 246 247 1
a 247 246 1
a 247 277 7
a 277 247 7
a 249 279 5
a 279 249 5
a 249 250 1
a 250 249 1
a 250 280 8
a 280 250 8
a 250 251 1
a 251 250 1
a 251 281 7
a 281 251 7
a 251 252 2
a 252 251 2
a 252 282 5
a 282 252 5
a 252 253 6
a 253 252 6
a 253 254 9
a 254 253 9
a 254 284 1
a 284 254 1
a 254 255 6
a 255 254 6
a 255 285 3
a 285 255 3
a 255 256 7
a 256 255 7
a 256 286 10
a 286 256 10
a 256 257 7
a 257 256 7
a 257 258 1
a 258 257 1
a 258 288 7
a 288 258 7
a 258 259 9
a 259 258 9
a 259 289 9
a 289 259 9
a 261 291 3
a 291 261 3
a 261 262 4
a 262 261 4
a 262 292 4
a 292 262 4
a 262 263 4
a 263 262 4
a 263 293 4
a 293 263 4
a 263 264 2
a 264 263 2
a 264 294 9
a 294 264 9
a 264 265 10
a 265 264 10
a 265 295 9
a 295 265 9
a 265 266 1
a 266 265 1
a 266 296 6
a 296 266 6
a 266 267 3
a 267 266 3
a 267 297 6
a 297 267 6
a 267 268 2
a 268 267 2
a 268 298 10
a 298 268 10
a 268 269 10
a 269 268 10
a 269 299 6
a 299 269 6
a 269 270 7
a 270 269 7
a 270 300 2
a 300 270 2
a 271 301 5
a 301 271 5
a 271 272 10
a 272 271 10
a 272 302 5
a 302 272 5
a 272 273 2
a 273 272 2
a 273 303 7
a 303 273 7
a 273 274 5
a 274 273 5
a 274 304 7
a 304 274 7
a 274 275 3
a 275 274 3
a 275 305 2
a 305 275 2
a 275 276 6
a 276 275 6
a 276 306 10
a 306 276 10
a 276 277 7
a 277 276 7
a 277 307 7
a 307 277 7
a 277 278 3
a 278 277 3
a 278 308 9
a 308 278 9
a 278 279 1
a 279 278 1
a 279 309 4
a 309 279 4
a 279 280 1
a 280 279 1
a 280 310 8
a 310 280 8
a 280 281 1
a 281 280 1
a 281 311 4
a 311 281 4
a 281 282 3
a 282 281 3
a 282 312 4
a 312 282 4
a 284 314 6
a 314 284 6
a 284 285 10
a 285 284 10
a 285 315 8
a 315 285 8
a 285 286 10
a 286 285 10
a 286 316 10
a 316 286 10
a 288 318 2
a 318 288 2
a 288 289 8
a 289 288 8
a 289 319 2
a 319 289 2
a 289 290 10
a 290 289 10
a 290 320 10
a 320 290 10
a 290 291 6
a 291 290 6
a 291 321 10
a 321 291 10
a 291 292 6
a 292 291 6
a 292 322 5
a 322 292 5
a 292 293 5
a 293 292 5
a 293 323 9
a 323 293 9
a 293 294 3
a 294 293 3
a 294 295 5
a 295 294 5
a 295 325 1
a 325 295 1
a 295 296 6
a 296 295 6
a 296 326 6
a 326 296 6
a 296 297 7
a 297 296 7
a 297 327 6
a 327 297 6
a 297 298 5
a 298 297 5
a 298 328 7
a 328 298 7
a 298 299 5
a 299 298 5
a 299 329 3
a 329 299 3
a 299 300 1
a 300 299 1
a 300 330 5
a 330 300 5
a 301 331 6
a 331 301 6
a 301 302 1
a 302 301 1
a 302 332 2
a 332 302 2
a 302 303 10
a 303 302 10
a 303 333 9
a 333 303 9
a 303 304 10
a 304 303 10
a 304 334 8
a 334 304 8
a 304 305 4
a 305 304 4
a 305 335 9
a 335 305 9
a 305 306 4
a 306 305 4
a 306 336 2
a 336 306 2
a 306 307 4
a 307 306 4
a 307 308 8
a 308 307 8
a 308 338 2
a 338 308 2
a 308 309 9
a 309 308 9
a 309 339 5
a 339 309 5
a 309 310 5
a 310 309 5
a 310 340 5
a 340 310 5
a 310 311 5
a 311 310 5
a 311 341 2
a 341 311 2
a 311 312 7
a 312 311 7
a 312 342 6
a 342 312 6
a 312 313 8
a 313 312 8
a 313 343 4
a 343 313 4
a 313 314 2
a 314 313 2
a 314 344 10
a 344 314 10
a 314 315 2
a 315 314 2
a 315 345 2
a 345 315 2
a 315 316 6
a 316 315 6
a 316 317 5
a 317 316 5
a 317 347 9
a 347 317 9
a 317 318 10
a 318 317 10
a 318 348 3
a 348 318 3
a 318 319 3
a 319 318 3
a 319 349 5
a 349 319 5
a 319 320 9
a 320 319 9
a 320 350 5
a 350 320 5
a 320 321 5
a 321 320 5
a 321 351 10
a 351 321 10
a 321 322 4
a 322 321 4
a 322 323 1
a 323 322 1
a 323 353 6
a 353 323 6
a 325 355 2
a 355 325 2
a 325 326 9
a 326 325 9
a 326 356 6
a 356 326 6
a 326 327 6
a 327 326 6
a 327 357 10
a 357 327 10
a 327 328 8
a 328 327 8
a 328 358 2
a 358 328 2
a 328 329 9
a 329 328 9
a 329 359 2
a 359 329 2
a 329 330 7
a 330 329 7
a 330 360 5
a 360 330 5
a 331 361 9
a 361 331 9
a 331 332 6
a 332 331 6
a 332 362 3
a 362 332 3
a 332 333 7
a 333 332 7
a 333 363 4
a 363 333 4
a 333 334 6
a 334 333 6
a 334 364 4
a 364 334 4
a 334 335 9
a 335 334 9
a 335 365 3
a 365 335 3
a 335 336 1
a 336 335 1
a 336 366 10
a 366 336 10
a 338 368 1
a 368 338 1
a 338 339 5
a 339 338 5
a 339 369 1
a 369 339 1
a 339 340 4
a 340 339 4
a 340 370 9
a 370 340 9
a 340 341 10
a 341 340 10
a 341 371 6
a 371 341 6
a 341 342 9
a 342 341 9
a 342 372 10
a 372 342 10
a 342 343 9
a 343 342 9
a 343 373 5
a 373 343 5
a 343 344 3
a 344 343 3
a 344 374 6
a 374 344 6
a 344 345 2
a 345 344 2
a 345 375 7
a 375 345 7
a 347 377 1
a 377 347 1
a 347 348 6
a 348 347 6
a 348 378 3
a 378 348 3
a 348 349 9
a 349 348 9
a 349 379 10
a 379 349 10
a 349 350 1
a 350 349 1
a 350 380 1
a 380 350 1
a 350 351 9
a 351 350 9
a 351 381 7
a 381 351 7
a 353 383 2
a 383 353 2
a 353 354 6
a 354 353 6
a 354 384 9
a 384 354 9
a 354 355 3
a 355 354 3
a 355 385 2
a 385 355 2
a 355 356 8
a 356 355 8
a 356 386 2
a 386 356 2
a 356 357 5
a 357 356 5
a 357 387 1
a 387 357 1
a 357 358 8
a 358 357 8
a 358 359 7
a 359 358 7
a 359 389 3
a 389 359 3
a 359 360 4
a 360 359 4
a 360 390 8
a 390 360 8
a 361 362 2
a 362 361 2
a 362 363 6
a 363 362 6
a 363 393 2
a 393 363 2
a 363 364 10
a 364 363 10
a 364 394 3
a 394 364 3
a 364 365 8
a 365 364 8
a 365 395 1
a 395 365 1
a 365 366 8
a 366 365 8
a 366 396 3
a 396 366 3
a 366 367 7
a 367 366 7
a 367 397 6
a 397 367 6
a 367 368 8
a 368 367 8
a 368 398 1
a 398 368 1
a 368 369 5
a 369 368 5
a 369 399 8
a 399 369 8
a 369 370 1
a 370 369 1
a 370 400 9
a 400 370 9
a 370 371 4
a 371 370 4
a 371 401 2
a 401 371 2
a 371 372 6
a 372 371 6
a 372 402 2
a 402 372 2
a 372 373 1
a 373 372 1
a 373 403 4
a 403 373 4
a 373 374 7
a 374 373 7
a 374 404 7
a 404 374 7
a 374 375 1
a 375 374 1
a 375 405 9
a 405 375 9
a 375 376 10
a 376 375 10
a 376 406 5
a 406 376 5
a 376 377 7
a 377 376 7
a 377 407 1
a 407 377 1
a 377 378 10
a 378 377 10
a 378 408 7
a 408 378 7
a 378 379 1
a 379 378 1
a 379 380 8
a 380 379 8
a 380 410 1
a 410 380 1
a 380 381 10
a 381 380 10
a 381 411 6
a 411 381 6
a 381 382 9
a 382 381 9
a 382 412 8
a 412 382 8
a 382 383 4
a 383 382 4
a 383 413 5
a 413 383 5
a 383 384 1
a 384 383 1
a 384 414 4
a 414 384 4
a 384 385 3
a 385 384 3
a 385 415 8
a 415 385 8
a 385 386 7
a 386 385 7
a 386 416 10
a 416 386 10
a 386 387 10
a 387 386 10
a 387 417 5
a 417 387 5
a 389 419 4
a 419 389 4
a 389 390 4
a 390 389 4
a 390 420 1
a 420 390 1
a 393 423 4
a 423 393 4
a 393 394 5
a 394 393 5
a 394 424 6
a 424 394 6
a 394 395 1
a 395 394 1
a 395 425 9
a 425 395 9
a 395 396 2
a 396 395 2
a 396 426 1
a 426 396 1
a 396 397 1
a 397 396 1
a 397 427 1
a 427 397 1
a 397 398 9
a 398 397 9
a 398 428 9
a 428 398 9
a 398 399 2
a 399 398 2
a 399 429 10
a 429 399 10
a 399 400 6
a 400 399 6
a 400 430 1
a 430 400 1
a 400 401 7
a 401 400 7
a 401 431 2
a 431 401 2
a 401 402 10
a 402 401 10
a 402 432 3
a 432 402 3
a 402 403 6
a 403 402 6
a 403 433 3
a 433 403 3
a 403 404 9
a 404 403 9
a 404 434 7
a 434 404 7
a 404 405 10
a 405 404 10
a 405 435 5
a 435 405 5
a 405 406 4
a 406 405 4
a 406 436 5
a 436 406 5
a 406 407 10
a 407 406 10
a 407 437 9
a 437 407 9
a 407 408 8
a 408 407 8
a 408 438 8
a 438 408 8
a 410 440 9
a 440 410 9
a 410 411 9
a 411 410 9
a 411 441 8
a 441 411 8
a 411 412 7
a 412 411 7
a 412 442 8
a 442 412 8
a 412 413 7
a 413 412 7
a 413 443 7
a 443 413 7
a 413 414 1
a 414 413 1
a 414 444 4
a 444 414 4
a 414 415 5
a 415 414 5
a 415 445 6
a 445 415 6
a 415 416 1
a 416 415 1
a 416 446 10
a 446 416 10
a 416 417 2
a 417 416 2
a 417 447 1
a 447 417 1
a 417 418 8
a 418 417 8
a 418 448 2
a 448 418 2
a 418 419 2
a 419 418 2
a 419 449 1
a 449 419 1
a 419 420 6
a 420 419 6
a 420 450 3
a 450 420 3
a 421 451 1
a 451 421 1
a 421 422 7
a 422 421 7
a 422 452 8
a 452 422 8
a 422 423 10
a 423 422 10
a 423 453 9
a 453 423 9
a 423 424 1
a 424 423 1
a 424 454 1
a 454 424 1
a 424 425 5
a 425 424 5
a 425 455 6
a 455 425 6
a 425 426 1
a 426 425 1
a 426 456 5
a 456 426 5
a 426 427 9
a 427 426 9
a 427 457 10
a 457 427 10
a 427 428 7
a 428 427 7
a 428 458 6
a 458 428 6
a 428 429 5
a 429 428 5
a 429 459 10
a 459 429 10
a 429 430 4
a 430 429 4
a 430 460 4
a 460 430 4
a 430 431 5
a 431 430 5
a 431 461 8
a 461 431 8
a 431 432 7
a 432 431 7
a 432 462 5
a 462 432 5
a 432 433 5
a 433 432 5
a 433 463 3
a 463 433 3
a 433 434 7
a 434 433 7
a 434 435 4
a 435 434 4
a 435 465 8
a 465 435 8
a 435 436 7
a 436 435 7
a 436 466 7
a 466 436 7
a 436 437 2
a 437 436 2
a 437 467 7
a 467 437 7
a 437 438 5
a 438 437 5
a 438 468 2
a 468 438 2
a 440 470 1
a 470 440 1
a 440 441 4
a 441 440 4
a 441 471 1
a 471 441 1
a 441 442 4
a 442 441 4
a 442 472 5
a 472 442 5
a 442 443 1
a 443 442 1
a 443 473 6
a 473 443 6
a 443 444 3
a 444 443 3
a 444 474 8
a 474 444 8
a 444 445 9
a 445 444 9
a 445 475 3
a 475 445 3
a 445 446 1
a 446 445 1
a 446 476 2
a 476 446 2
a 446 447 10
a 447 446 10
a 447 477 1
a 477 447 1
a 447 448 6
a 448 447 6
a 448 478 4
a 478 448 4
a 448 449 1
a 449 448 1
a 449 479 4
a 479 449 4
a 449 450 2
a 450 449 2
a 451 481 1
a 481 451 1
a 451 452 6
a 452 451 6
a 452 482 1
a 482 452 1
a 452 453 2
a 453 452 2
a 453 483 9
a 483 453 9
a 453 454 5
a 454 453 5
a 454 484 7
a 484 454 7
a 454 455 4
a 455 454 4
a 455 485 7
a 485 455 7
a 455 456 10
a 456 455 10
a 456 486 8
a 486 456 8
a 456 457 2
a 457 456 2
a 457 487 6
a 487 457 6
a 457 458 2
a 458 457 2
a 458 488 8
a 488 458 8
a 458 459 6
a 459 458 6
a 459 489 3
a 489 459 3
a 459 460 1
a 460 459 1
a 460 490 9
a 490 460 9
a 460 461 4
a 461 460 4
a 461 491 1
a 491 461 1
a 461 462 6
a 462 461 6
a 462 492 2
a 492 462 2
a 462 463 7
a 463 462 7
a 463 493 9
a 493 463 9
a 465 495 8
a 495 465 8
a 465 466 1
a 466 465 1
a 466 496 8
a 496 466 8
a 466 467 8
a 467 466 8
a 467 497 2
a 497 467 2
a 467 468 8
a 468 467 8
a 468 498 8
a 498 468 8
a 468 469 4
a 469 468 4
a 469 499 5
a 499 469 5
a 469 470 5
a 470 469 5
a 470 500 6
a 500 470 6
a 470 471 4
a 471 470 4
a 471 501 1
a 501 471 1
a 471 472 7
a 472 471 7
a 472 502 10
a 502 472 10
a 472 473 2
a 473 472 2
a 473 503 2
a 503 473 2
a 473 474 1
a 474 473 1
a 474 504 1
a 504 474 1
a 474 475 3
a 475 474 3
a 475 505 9
a 505 475 9
a 475 476 8
a 476 475 8
a 476 506 1
a 506 476 1
a 476 477 4
a 477 476 4
a 477 507 5
a 507 477 5
a 477 478 4
a 478 477 4
a 478 508 2
a 508 478 2
a 478 479 5
a 479 478 5
a 479 509 9
a 509 479 9
a 481 511 5
a 511 481 5
a 481 482 1
a 482 481 1
a 482 512 4
a 512 482 4
a 482 483 3
a 483 482 3
a 483 513 3
a 513 483 3
a 483 484 4
a 484 483 4
a 484 514 6
a 514 484 6
a 484 485 7
a 485 484 7
a 485 515 5
a 515 485 5
a 485 486 8
a 486 485 8
a 486 516 7
a 516 486 7
a 486 487 2
a 487 486 2
a 487 517 6
a 517 487 6
a 487 488 9
a 488 487 9
a 488 518 5
a 518 488 5
a 488 489 1
a 489 488 1
a 489 519 10
a 519 489 10
a 489 490 5
a 490 489 5
a 490 520 8
a 520 490 8
a 490 491 4
a 491 490 4
a 491 521 4
a 521 491 4
a 491 492 3
a 492 491 3
a 492 522 8
a 522 492 8
a 492 493 8
a 493 492 8
a 493 494 9
a 494 493 9
a 494 524 7
a 524 494 7
a 494 495 5
a 495 494 5
a 495 525 9
a 525 495 9
a 495 496 10
a 496 495 10
a 496 526 7
a 526 496 7
a 496 497 8
a 497 496 8
a 497 527 5
a 527 497 5
a 497 498 9
a 498 497 9
a 498 528 8
a 528 498 8
a 498 499 8
a 499 498 8
a 499 529 2
a 529 499 2
a 499 500 8
a 500 499 8
a 500 530 1
a 530 500 1
a 500 501 5
a 501 500 5
a 501 531 4
a 531 501 4
a 501 502 6
a 502 501 6
a 502 532 1
a 532 502 1
a 502 503 3
a 503 502 3
a 503 533 5
a 533 503 5
a 503 504 5
a 504 503 5
a 504 534 8
a 534 504 8
a 504 505 8
a 505 504 8
a 505 535 10
a 535 505 10
a 505 506 4
a 506 505 4
a 506 536 4
a 536 506 4
a 506 507 8
a 507 506 8
a 507 537 3
a 537 507 3
a 507 508 6
a 508 507 6
a 508 538 6
a 538 508 6
a 508 509 1
a 509 508 1
a 509 539 9
a 539 509 9
a 509 510 4
a 510 509 4
a 510 540 5
a 540 510 5
a 511 541 6
a 541 511 6
a 511 512 4
a 512 511 4
a 512 542 3
a 542 512 3
a 512 513 4
a 513 512 4
a 513 543 7
a 543 513 7
a 513 514 2
a 514 513 2
a 514 544 1
a 544 514 1
a 514 515 8
a 515 514 8
a 515 545 4
a 545 515 4
a 515 516 5
a 516 515 5
a 516 546 4
a 546 516 4
a 516 517 1
a 517 516 1
a 517 547 10
a 547 517 10
a 517 518 3
a 518 517 3
a 518 548 9
a 548 518 9
a 518 519 6
a 519 518 6
a 519 549 2
a 549 519 2
a 519 520 7
a 520 519 7
a 520 550 2
a 550 520 2
a 520 521 6
a 521 520 6
a 521 551 2
a 551 521 2
a 521 522 9
a 522 521 9
a 522 552 8
a 552 522 8
a 524 554 10
a 554 524 10
a 524 525 9
a 525 524 9
a 525 555 3
a 555 525 3
a 525 526 3
a 526 525 3
a 526 556 4
a 556 526 4
a 526 527 6
a 527 526 6
a 527 557 10
a 557 527 10
a 527 528 9
a 528 527 9
a 528 558 3
a 558 528 3
a 528 529 9
a 529 528 9
a 529 559 3
a 559 529 3
a 529 530 3
a 530 529 3
a 530 560 4
a 560 530 4
a 530 531 6
a 531 530 6
a 531 561 6
a 561 531 6
a 531 532 4
a 532 531 4
a 532 562 5
a 562 532 5
a 532 533 7
a 533 532 7
a 533 563 8
a 563 533 8
a 533 534 6
a 534 533 6
a 534 564 4
a 564 534 4
a 534 535 4
a 535 534 4
a 535 565 7
a 565 535 7
a 535 536 10
a 536 535 10
a 536 566 7
a 566 536 7
a 536 537 2
a 537 536 2
a 537 567 7
a 567 537 7
a 537 538 5
a 538 537 5
a 538 568 1
a 568 538 1
a 538 539 9
a 539 538 9
a 539 569 8
a 569 539 8
a 539 540 1
a 540 539 1
a 540 570 4
a 570 540 4
a 541 571 3
a 571 541 3
a 541 542 1
a 542 541 1
a 542 572 6
a 572 542 6
a 542 543 3
a 543 542 3
a 543 573 3
a 573 543 3
a 543 544 4
a 544 543 4
a 544 574 7
a 574 544 7
a 544 545 9
a 545 544 9
a 545 575 7
a 575 545 7
a 545 546 9
a 546 545 9
a 546 576 5
a 576 546 5
a 546 547 2
a 547 546 2
a 547 577 3
a 577 547 3
a 547 548 1
a 548 547 1
a 548 578 10
a 578 548 10
a 548 549 6
a 549 548 6
a 549 579 7
a 579 549 7
a 549 550 9
a 550 549 9
a 550 580 3
a 580 550 3
a 550 551 7
a 551 550 7
a 551 581 7
a 581 551 7
a 551 552 5
a 552 551 5
a 552 582 10
a 582 552 10
a 552 553 4
a 553 552 4
a 553 583 10
a 583 553 10
a 553 554 5
a 554 553 5
a 554 584 5
a 584 554 5
a 554 555 1
a 555 554 1
a 555 585 8
a 585 555 8
a 555 556 9
a 556 555 9
a 556 586 1
a 586 556 1
a 556 557 5
a 557 556 5
a 557 587 8
a 587 557 8
a 557 558 6
a 558 557 6
a 558 588 7
a 588 558 7
a 558 559 10
a 559 558 10
a 559 589 2
a 589 559 2
a 559 560 9
a 560 559 9
a 560 590 1
a 590 560 1
a 560 561 7
a 561 560 7
a 561 591 5
a 591 561 5
a 561 562 1
a 562 561 1
a 562 592 3
a 592 562 3
a 562 563 2
a 563 562 2
a 563 593 9
a 593 563 9
a 563 564 5
a 564 563 5
a 564 594 8
a 594 564 8
a 564 565 7
a 565 564 7
a 565 595 10
a 595 565 10
a 565 566 8
a 566 565 8
a 566 596 3
a 596 566 3
a 566 567 10
a 567 566 10
a 567 597 1
a 597 567 1
a 567 568 7
a 568 567 7
a 568 598 8
a 598 568 8
a 568 569 1
a 569 568 1
a 569 599 1
a 599 569 1
a 569 570 1
a 570 569 1
a 570 600 3
a 600 570 3
a 571 601 10
a 601 571 10
a 571 572 5
a 572 571 5
a 572 602 9
a 602 572 9
a 572 573 5
a 573 572 5
a 573 603 5
a 603 573 5
a 573 574 4
a 574 573 4
a 574 604 9
a 604 574 9
a 574 575 1
a 575 574 1
a 575 605 2
a 605 575 2
a 575 576 4
a 576 575 4
a 576 606 9
a 606 576 9
a 576 577 6
a 577 576 6
a 577 607 6
a 607 577 6
a 577 578 9
a 578 577 9
a 578 608 1
a 608 578 1
a 578 579 9
a 579 578 9
a 579 609 2
a 609 579 2
a 579 580 1
a 580 579 1
a 580 610 6
a 610 580 6
a 580 581 1
a 581 580 1
a 581 611 4
a 611 581 4
a 581 582 7
a 582 581 7
a 582 612 4
a 612 582 4
a 582 583 7
a 583 582 7
a 583 613 5
a 613 583 5
a 583 584 5
a 584 583 5
a 584 614 1
a 614 584 1
a 584 585 5
a 585 584 5
a 585 615 10
a 615 585 10
a 585 586 10
a 586 585 10
a 586 616 1
a 616 586 1
a 586 587 5
a 587 586 5
a 587 617 2
a 617 587 2
a 587 588 3
a 588 587 3
a 588 618 10
a 618 588 10
a 588 589 6
a 589 588 6
a 589 619 3
a 619 589 3
a 589 590 8
a 590 589 8
a 590 620 9
a 620 590 9
a 590 591 4
a 591 590 4
a 591 621 6
a 621 591 6
a 591 592 6
a 592 591 6
a 592 622 10
a 622 592 10
a 592 593 7
a 593 592 7
a 593 623 8
a 623 593 8
a 593 594 1
a 594 593 1
a 594 624 7
a 624 594 7
a 594 595 10
a 595 594 10
a 595 625 7
a 625 595 7
a 595 596 1
a 596 595 1
a 596 626 7
a 626 596 7
a 596 597 1
a 597 596 1
a 597 627 5
a 627 597 5
a 597 598 6
a 598 597 6
a 598 628 1
a 628 598 1
a 598 599 1
a 599 598 1
a 599 629 2
a 629 599 2
a 599 600 10
a 600 599 10
a 600 630 3
a 630 600 3
a 601 631 3
a 631 601 3
a 601 602 2
a 602 601 2
a 602 632 1
a 632 602 1
a 602 603 9
a 603 602 9
a 603 633 9
a 633 603 9
a 603 604 8
a 604 603 8
a 604 605 7
a 605 604 7
a 605 635 6
a 635 605 6
a 605 606 6
a 606 605 6
a 606 636 6
a 636 606 6
a 606 607 1
a 607 606 1
a 607 637 8
a 637 607 8
a 607 608 5
a 608 607 5
a 608 638 10
a 638 608 10
a 608 609 10
a 609 608 10
a 609 639 2
a 639 609 2
a 609 610 6
a 610 609 6
a 610 640 6
a 640 610 6
a 610 611 5
a 611 610 5
a 611 641 7
a 641 611 7
a 611 612 8
a 612 611 8
a 612 642 10
a 642 612 10
a 612 613 8
a 613 612 8
a 613 614 10
a 614 613 10
a 614 644 5
a 644 614 5
a 614 615 9
a 615 614 9
a 615 645 2
a 645 615 2
a 615 616 9
a 616 615 9
a 616 646 2
a 646 616 2
a 616 617 5
a 617 616 5
a 617 647 7
a 647 617 7
a 617 618 4
a 618 617 4
a 618 648 8
a 648 618 8
a 618 619 4
a 619 618 4
a 619 649 7
a 649 619 7
a 619 620 6
a 620 619 6
a 620 650 1
a 650 620 1
a 620 621 7
a 621 620 7
a 621 651 3
a 651 621 3
a 621 622 8
a 622 621 8
a 622 652 10
a 652 622 10
a 622 623 3
a 623 622 3
a 623 653 10
a 653 623 10
a 623 624 2
a 624 623 2
a 624 625 5
a 625 624 5
a 625 655 6
a 655 625 6
a 625 626 7
a 626 625 7
a 626 656 5
a 656 626 5
a 626 627 4
a 627 626 4
a 627 657 10
a 657 627 10
a 627 628 3
a 628 627 3
a 628 658 5
a 658 628 5
a 628 629 5
a 629 628 5
a 629 630 10
a 630 629 10
a 630 660 2
a 660 630 2
a 631 661 5
a 661 631 5
a 631 632 10
a 632 631 10
a 632 662 10
a 662 632 10
a 632 633 1
a 633 632 1
a 633 663 3
a 663 633 3
a 635 665 4
a 665 635 4
a 635 636 10
a 636 635 10
a 636 666 3
a 666 636 3
a 636 637 3
a 637 636 3
a 637 667 3
a 667 637 3
a 637 638 6
a 638 637 6
a 638 668 9
a 668 638 9
a 638 639 4
a 639 638 4
a 639 669 4
a 669 639 4
a 639 640 6
a 640 639 6
a 640 670 9
a 670 640 9
a 640 641 1
a 641 640 1
a 641 671 3
a 671 641 3
a 641 642 4
a 642 641 4
a 642 672 4
a 672 642 4
a 644 674 7
a 674 644 7
a 644 645 4
a 645 644 4
a 645 675 6
a 675 645 6
a 645 646 9
a 646 645 9
a 646 676 9
a 676 646 9
a 646 647 7
a 647 646 7
a 647 677 1
a 677 647 1
a 647 648 2
a 648 647 2
a 648 678 3
a 678 648 3
a 648 649 2
a 649 648 2
a 649 679 1
a 679 649 1
a 649 650 1
a 650 649 1
a 650 680 10
a 680 650 10
a 650 651 2
a 651 650 2
a 651 681 6
a 681 651 6
a 651 652 3
a 652 651 3
a 652 682 8
a 682 652 8
a 652 653 7
a 653 652 7
a 653 683 5
a 683 653 5
a 655 685 7
a 685 655 7
a 655 656 5
a 656 655 5
a 656 686 3
a 686 656 3
a 656 657 7
a 657 656 7
a 657 687 1
a 687 657 1
a 657 658 6
a 658 657 6
a 658 688 6
a 688 658 6
a 660 690 6
a 690 660 6
a 661 691 10
a 691 661 10
a 661 662 9
a 662 661 9
a 662 692 4
a 692 662 4
a 662 663 8
a 663 662 8
a 663 693 10
a 693 663 10
a 663 664 4
a 664 663 4
a 664 694 8
a 694 664 8
a 664 665 7
a 665 664 7
a 665 695 9
a 695 665 9
a 665 666 3
a 666 665 3
a 666 696 3
a 696 666 3
a 666 667 8
a 667 666 8
a 667 697 5
a 697 667 5
a 667 668 1
a 668 667 1
a 668 698 1
a 698 668 1
a 668 669 7
a 669 668 7
a 669 699 2
a 699 669 2
a 669 670 6
a 670 669 6
a 670 700 5
a 700 670 5
a 670 671 2
a 671 670 2
a 671 701 1
a 701 671 1
a 671 672 9
a 672 671 9
a 672 702 7
a 702 672 7
a 672 673 3
a 673 672 3
a 673 703 9
a 703 673 9
a 673 674 4
a 674 673 4
a 674 704 9
a 704 674 9
a 674 675 1
a 675 674 1
a 675 705 7
a 705 675 7
a 675 676 1
a 676 675 1
a 676 706 10
a 706 676 10
a 676 677 8
a 677 676 8
a 677 707 2
a 707 677 2
a 677 678 2
a 678 677 2
a 678 708 9
a 708 678 9
a 678 679 2
a 679 678 2
a 679 709 2
a 709 679 2
a 679 680 8
a 680 679 8
a 680 710 8
a 710 680 8
a 680 681 7
a 681 680 7
a 681 711 3
a 711 681 3
a 681 682 5
a 682 681 5
a 682 712 3
a 712 682 3
a 682 683 8
a 683 682 8
a 683 713 7
a 713 683 7
a 683 684 4
a 684 683 4
a 684 714 7
a 714 684 7
a 684 685 8
a 685 684 8
a 685 715 8
a 715 685 8
a 685 686 2
a 686 685 2
a 686 716 5
a 716 686 5
a 686 687 6
a 687 686 6
a 687 717 7
a 717 687 7
a 687 688 8
a 688 687 8
a 688 718 5
a 718 688 5
a 688 689 3
a 689 688 3
a 689 719 8
a 719 689 8
a 689 690 3
a 690 689 3
a 690 720 10
a 720 690 10
a 691 721 8
a 721 691 8
a 691 692 4
a 692 691 4
a 692 722 1
a 722 692 1
a 692 693 7
a 693 692 7
a 693 723 3
a 723 693 3
a 693 694 1
a 694 693 1
a 694 724 3
a 724 694 3
a 694 695 7
a 695 694 7
a 695 725 7
a 725 695 7
a 695 696 9
a 696 695 9
a 696 726 3
a 726 696 3
a 696 697 10
a 697 696 10
a 697 727 6
a 727 697 6
a 697 698 9
a 698 697 9
a 698 728 9
a 728 698 9
a 698 699 10
a 699 698 10
a 699 729 4
a 729 699 4
a 699 700 2
a 700 699 2
a 700 730 4
a 730 700 4
a 700 701 6
a 701 700 6
a 701 731 3
a 731 701 3
a 701 702 5
a 702 701 5
a 702 732 1
a 732 702 1
a 702 703 3
a 703 702 3
a 703 733 8
a 733 703 8
a 703 704 6
a 704 703 6
a 704 734 3
a 734 704 3
a 704 705 10
a 705 704 10
a 705 735 1
a 735 705 1
a 705 706 4
a 706 705 4
a 706 736 9
a 736 706 9
a 706 707 4
a 707 706 4
a 707 737 8
a 737 707 8
a 707 708 9
a 708 707 9
a 708 738 7
a 738 708 7
a 708 709 10
a 709 708 10
a 709 739 1
a 739 709 1
a 709 710 7
a 710 709 7
a 710 740 7
a 740 710 7
a 710 711 9
a 711 710 9
a 711 741 1
a 741 711 1
a 711 712 3
a 712 711 3
a 712 742 2
a 742 712 2
a 712 713 10
a 713 712 10
a 713 743 5
a 743 713 5
a 713 714 3
a 714 713 3
a 714 744 5
a 744 714 5
a 714 715 3
a 715 714 3
a 715 745 7
a 745 715 7
a 715 716 4
a 716 715 4
a 716 746 9
a 746 716 9
a 716 717 4
a 717 716 4
a 717 747 9
a 747 717 9
a 717 718 5
a 718 717 5
a 718 748 3
a 748 718 3
a 718 719 2
a 719 718 2
a 719 749 10
a 749 719 10
a 719 720 8
a 720 719 8
a 721 751 4
a 751 721 4
a 721 722 5
a 722 721 5
a 722 752 7
a 752 722 7
a 722 723 8
a 723 722 8
a 723 753 7
a 753 723 7
a 723 724 1
a 724 723 1
a 724 754 4
a 754 724 4
a 724 725 7
a 725 724 7
a 725 755 1
a 755 725 1
a 725 726 6
a 726 725 6
a 726 756 4
a 756 726 4
a 726 727 10
a 727 726 10
a 727 757 9
a 757 727 9
a 727 728 2
a 728 727 2
a 728 758 3
a 758 728 3
a 728 729 9
a 729 728 9
a 729 759 7
a 759 729 7
a 729 730 6
a 730 729 6
a 730 760 2
a 760 730 2
a 730 731 4
a 731 730 4
a 731 761 1
a 761 731 1
a 731 732 10
a 732 731 10
a 732 762 5
a 762 732 5
a 732 733 3
a 733 732 3
a 733 763 5
a 763 733 5
a 733 734 3
a 734 733 3
a 734 764 8
a 764 734 8
a 734 735 8
a 735 734 8
a 735 765 8
a 765 735 8
a 735 736 5
a 736 735 5
a 736 766 5
a 766 736 5
a 736 737 10
a 737 736 10
a 737 767 4
a 767 737 4
a 737 738 7
a 738 737 7
a 738 768 5
a 768 738 5
a 738 739 5
a 739 738 5
a 739 769 4
a 769 739 4
a 739 740 6
a 740 739 6
a 740 741 8
a 741 740 8
a 741 771 4
a 771 741 4
a 741 742 6
a 742 741 6
a 742 772 10
a 772 742 10
a 742 743 2
a 743 742 2
a 743 773 9
a 773 743 9
a 743 744 1
a 744 743 1
a 744 774 9
a 774 744 9
a 744 745 4
a 745 744 4
a 745 775 9
a 775 745 9
a 745 746 8
a 746 745 8
a 746 776 4
a 776 746 4
a 746 747 6
a 747 746 6
a 747 777 10
a 777 747 10
a 747 748 4
a 748 747 4
a 748 778 2
a 778 748 2
a 748 749 3
a 749 748 3
a 749 779 10
a 779 749 10
a 751 781 8
a 781 751 8
a 751 752 10
a 752 751 10
a 752 782 8
a 782 752 8
a 752 753 8
a 753 752 8
a 753 783 4
a 783 753 4
a 753 754 4
a 754 753 4
a 754 755 9
a 755 754 9
a 755 785 9
a 785 755 9
a 755 756 10
a 756 755 10
a 756 786 4
a 786 756 4
a 756 757 2
a 757 756 2
a 757 787 9
a 787 757 9
a 757 758 2
a 758 757 2
a 758 788 3
a 788 758 3
a 758 759 1
a 759 758 1
a 759 789 3
a 789 759 3
a 759 760 8
a 760 759 8
a 760 790 6
a 790 760 6
a 760 761 5
a 761 760 5
a 761 791 5
a 791 761 5
a 761 762 2
a 762 761 2
a 762 792 10
a 792 762 10
a 762 763 10
a 763 762 10
a 763 793 1
a 793 763 1
a 763 764 2
a 764 763 2
a 764 794 7
a 794 764 7
a 764 765 7
a 765 764 7
a 765 795 5
a 795 765 5
a 765 766 10
a 766 765 10
a 766 796 3
a 796 766 3
a 766 767 9
a 767 766 9
a 767 797 10
a 797 767 10
a 767 768 7
a 768 767 7
a 768 798 4
a 798 768 4
a 768 769 8
a 769 768 8
a 769 799 8
a 799 769 8
a 771 801 10
a 801 771 10
a 771 772 7
a 772 771 7
a 772 802 1
a 802 772 1
a 772 773 9
a 773 772 9
a 773 803 3
a 803 773 3
a 773 774 10
a 774 773 10
a 774 804 2
a 804 774 2
a 774 775 2
a 775 774 2
a 775 805 8
a 805 775 8
a 775 776 4
a 776 775 4
a 776 806 1
a 806 776 1
a 776 777 10
a 777 776 10
a 777 807 8
a 807 777 8
a 777 778 9
a 778 777 9
a 778 808 9
a 808 778 9
a 778 779 6
a 779 778 6
a 779 809 9
a 809 779 9
a 779 780 1
a 780 779 1
a 780 810 3
a 810 780 3
a 781 811 5
a 811 781 5
a 781 782 6
a 782 781 6
a 782 812 8
a 812 782 8
a 782 783 8
a 783 782 8
a 783 813 10
a 813 783 10
a 785 815 8
a 815 785 8
a 785 786 5
a 786 785 5
a 786 816 5
a 816 786 5
a 786 787 7
a 787 786 7
a 787 817 6
a 817 787 6
a 787 788 10
a 788 787 10
a 788 818 10
a 818 788 10
a 788 789 2
a 789 788 2
a 789 819 3
a 819 789 3
a 789 790 2
a 790 789 2
a 790 820 10
a 820 790 10
a 790 791 3
a 791 790 3
a 791 821 9
a 821 791 9
a 791 792 8
a 792 791 8
a 792 822 4
a 822 792 4
a 792 793 3
a 793 792 3
a 793 823 10
a 823 793 10
a 793 794 8
a 794 793 8
a 794 824 10
a 824 794 10
a 794 795 7
a 795 794 7
a 795 825 2
a 825 795 2
a 795 796 5
a 796 795 5
a 796 826 4
a 826 796 4
a 796 797 7
a 797 796 7
a 797 827 4
a 827 797 4
a 797 798 3
a 798 797 3
a 798 799 1
a 799 798 1
a 799 829 7
a 829 799 7
a 799 800 7
a 800 799 7
a 800 830 7
a 830 800 7
a 800 801 6
a 801 800 6
a 801 831 4
a 831 801 4
a 801 802 5
a 802 801 5
a 802 832 7
a 832 802 7
a 802 803 3
a 803 802 3
a 803 833 7
a 833 803 7
a 803 804 4
a 804 803 4
a 804 834 10
a 834 804 10
a 804 805 7
a 805 804 7
a 805 835 2
a 835 805 2
a 805 806 8
a 806 805 8
a 806 836 8
a 836 806 8
a 806 807 1
a 807 806 1
a 807 837 10
a 837 807 10
a 807 808 10
a 808 807 10
a 808 838 4
a 838 808 4
a 808 809 4
a 809 808 4
a 809 839 5
a 839 809 5
a 809 810 3
a 810 809 3
a 810 840 3
a 840 810 3
a 811 812 6
a 812 811 6
a 812 842 8
a 842 812 8
a 812 813 2
a 813 812 2
a 813 843 10
a 843 813 10
a 815 845 2
a 845 815 2
a 815 816 9
a 816 815 9
a 816 817 7
a 817 816 7
a 817 818 3
a 818 817 3
a 818 848 8
a 848 818 8
a 818 819 9
a 819 818 9
a 819 849 6
a 849 819 6
a 819 820 1
a 820 819 1
a 820 850 5
a 850 820 5
a 820 821 3
a 821 820 3
a 821 851 2
a 851 821 2
a 821 822 3
a 822 821 3
a 822 852 4
a 852 822 4
a 822 823 1
a 823 822 1
a 823 853 7
a 853 823 7
a 823 824 7
a 824 823 7
a 824 854 10
a 854 824 10
a 824 825 5
a 825 824 5
a 825 855 7
a 855 825 7
a 825 826 9
a 826 825 9
a 826 856 1
a 856 826 1
a 826 827 6
a 827 826 6
a 827 857 8
a 857 827 8
a 829 859 8
a 859 829 8
a 829 830 8
a 830 829 8
a 830 831 1
a 831 830 1
a 831 861 7
a 861 831 7
a 831 832 8
a 832 831 8
a 832 833 9
a 833 832 9
a 833 863 4
a 863 833 4
a 833 834 8
a 834 833 8
a 834 864 5
a 864 834 5
a 834 835 5
a 835 834 5
a 835 865 7
a 865 835 7
a 835 836 4
a 836 835 4
a 836 866 1
a 866 836 1
a 836 837 1
a 837 836 1
a 837 867 5
a 867 837 5
a 837 838 5
a 838 837 5
a 838 868 6
a 868 838 6
a 838 839 1
a 839 838 1
a 839 869 5
a 869 839 5
a 839 840 3
a 840 839 3
a 840 870 8
a 870 840 8
a 842 872 8
a 872 842 8
a 842 843 8
a 843 842 8
a 843 873 1
a 873 843 1
a 843 844 9
a 844 843 9
a 844 874 9
a 874 844 9
a 844 845 4
a 845 844 4
a 845 875 10
a 875 845 10
a 848 878 6
a 878 848 6
a 848 849 9
a 849 848 9
a 849 879 4
a 879 849 4
a 849 850 2
a 850 849 2
a 850 880 5
a 880 850 5
a 850 851 2
a 851 850 2
a 851 881 2
a 881 851 2
a 851 852 4
a 852 851 4
a 852 882 6
a 882 852 6
a 852 853 4
a 853 852 4
a 853 883 3
a 883 853 3
a 853 854 1
a 854 853 1
a 854 884 10
a 884 854 10
a 854 855 4
a 855 854 4
a 855 885 5
a 885 855 5
a 855 856 2
a 856 855 2
a 856 886 10
a 886 856 10
a 856 857 3
a 857 856 3
a 857 887 4
a 887 857 4
a 857 858 4
a 858 857 4
a 858 888 2
a 888 858 2
a 858 859 10
a 859 858 10
a 859 889 2
a 889 859 2
a 861 891 3
a 891 861 3
a 863 893 9
a 893 863 9
a 863 864 1
a 864 863 1
a 864 894 5
a 894 864 5
a 864 865 2
a 865 864 2
a 865 895 10
a 895 865 10
a 865 866 4
a 866 865 4
a 866 896 2
a 896 866 2
a 866 867 9
a 867 866 9
a 867 897 3
a 897 867 3
a 867 868 1
a 868 867 1
a 868 898 3
a 898 868 3
a 868 869 8
a 869 868 8
a 869 899 2
a 899 869 2
a 869 870 4
a 870 869 4
a 870 900 7
a 900 870 7
a 871 872 6
a 872 871 6
a 872 873 5
a 873 872 5
a 873 874 4
a 874 873 4
a 874 875 7
a 875 874 7
a 875 876 10
a 876 875 10
a 876 877 3
a 877 876 3
a 877 878 6
a 878 877 6
a 878 879 9
a 879 878 9
a 879 880 3
a 880 879 3
a 880 881 4
a 881 880 4
a 881 882 3
a 882 881 3
a 882 883 6
a 883 882 6
a 883 884 3
a 884 883 3
a 884 885 5
a 885 884 5
a 885 886 7
a 886 885 7
a 886 887 6
a 887 886 6
a 887 888 5
a 888 887 5
a 888 889 8
a 889 888 8
a 889 890 7
a 890 889 7
a 890 891 8
a 891 890 8
a 893 894 9
a 894 893 9
a 894 895 10
a 895 894 10
a 895 896 3
a 896 895 3
a 896 897 10
a 897 896 10
a 897 898 3
a 898 897 3
a 898 899 5
a 899 898 5
a 899 900 9
a 900 899 9
